<?xml version = "1.0" encoding="UTF-8" standalone="yes"?>
<CPLEXSolution version="1.2">
 <header
   problemName="model"
   solutionName="incumbent"
   solutionIndex="-1"
   objectiveValue="59.915957999999989"
   solutionTypeValue="3"
   solutionTypeString="primal"
   solutionStatusValue="101"
   solutionStatusString="integer optimal solution"
   solutionMethodString="mip"
   primalFeasible="1"
   dualFeasible="1"
   MIPNodes="0"
   MIPIterations="466"
   writeLevel="1"/>
 <quality
   epInt="1.0000000000000001e-05"
   epRHS="9.9999999999999995e-07"
   maxIntInfeas="0"
   maxPrimalInfeas="3.5527136788005009e-15"
   maxX="15"
   maxSlack="14"/>
 <linearConstraints>
  <constraint index="0" slack="0"/>
  <constraint index="1" slack="-3.5527136788005009e-15"/>
  <constraint index="2" slack="0"/>
  <constraint index="3" slack="0"/>
  <constraint index="4" slack="0"/>
  <constraint index="5" slack="0"/>
  <constraint index="6" slack="0"/>
  <constraint index="7" slack="0"/>
  <constraint index="8" slack="3.5527136788005009e-15"/>
  <constraint index="9" slack="0"/>
  <constraint index="10" slack="0"/>
  <constraint index="11" slack="0"/>
  <constraint index="12" slack="0"/>
  <constraint index="13" slack="0"/>
  <constraint index="14" slack="0"/>
  <constraint index="15" slack="0"/>
  <constraint index="16" slack="0"/>
  <constraint index="17" slack="0"/>
  <constraint index="18" slack="0"/>
  <constraint index="19" slack="0"/>
  <constraint index="20" slack="0"/>
  <constraint index="21" slack="0"/>
  <constraint index="22" slack="0"/>
  <constraint index="23" slack="0"/>
  <constraint index="24" slack="0"/>
  <constraint index="25" slack="0"/>
  <constraint index="26" slack="0"/>
  <constraint index="27" slack="0"/>
  <constraint index="28" slack="0"/>
  <constraint index="29" slack="0"/>
  <constraint index="30" slack="0"/>
  <constraint index="31" slack="0"/>
  <constraint index="32" slack="0"/>
  <constraint index="33" slack="0"/>
  <constraint index="34" slack="0"/>
  <constraint index="35" slack="0"/>
  <constraint index="36" slack="0"/>
  <constraint index="37" slack="0"/>
  <constraint index="38" slack="0"/>
  <constraint index="39" slack="0"/>
  <constraint index="40" slack="0"/>
  <constraint index="41" slack="0"/>
  <constraint index="42" slack="0"/>
  <constraint index="43" slack="0"/>
  <constraint index="44" slack="0"/>
  <constraint index="45" slack="0"/>
  <constraint index="46" slack="0"/>
  <constraint index="47" slack="0"/>
  <constraint index="48" slack="0"/>
  <constraint index="49" slack="0"/>
  <constraint index="50" slack="0"/>
  <constraint index="51" slack="0"/>
  <constraint index="52" slack="0"/>
  <constraint index="53" slack="0"/>
  <constraint index="54" slack="0"/>
  <constraint index="55" slack="0"/>
  <constraint index="56" slack="0"/>
  <constraint index="57" slack="0"/>
  <constraint index="58" slack="0"/>
  <constraint index="59" slack="8"/>
  <constraint index="60" slack="0"/>
  <constraint index="61" slack="7"/>
  <constraint index="62" slack="0"/>
  <constraint index="63" slack="0"/>
  <constraint index="64" slack="0"/>
  <constraint index="65" slack="0"/>
  <constraint index="66" slack="0"/>
  <constraint index="67" slack="0"/>
  <constraint index="68" slack="0"/>
  <constraint index="69" slack="0"/>
  <constraint index="70" slack="0"/>
  <constraint index="71" slack="0"/>
  <constraint index="72" slack="0"/>
  <constraint index="73" slack="0"/>
  <constraint index="74" slack="0"/>
  <constraint index="75" slack="0"/>
  <constraint index="76" slack="5.9999999999999964"/>
  <constraint index="77" slack="0"/>
  <constraint index="78" slack="0"/>
  <constraint index="79" slack="0"/>
  <constraint index="80" slack="0"/>
  <constraint index="81" slack="0"/>
  <constraint index="82" slack="0"/>
  <constraint index="83" slack="0"/>
  <constraint index="84" slack="0"/>
  <constraint index="85" slack="0"/>
  <constraint index="86" slack="0"/>
  <constraint index="87" slack="0"/>
  <constraint index="88" slack="0"/>
  <constraint index="89" slack="0"/>
  <constraint index="90" slack="0"/>
  <constraint index="91" slack="4.9999999999999964"/>
  <constraint index="92" slack="0"/>
  <constraint index="93" slack="0"/>
  <constraint index="94" slack="0"/>
  <constraint index="95" slack="0"/>
  <constraint index="96" slack="0"/>
  <constraint index="97" slack="0"/>
  <constraint index="98" slack="0"/>
  <constraint index="99" slack="0"/>
  <constraint index="100" slack="0"/>
  <constraint index="101" slack="0"/>
  <constraint index="102" slack="0"/>
  <constraint index="103" slack="0"/>
  <constraint index="104" slack="0"/>
  <constraint index="105" slack="0"/>
  <constraint index="106" slack="3.9999999999999964"/>
  <constraint index="107" slack="0"/>
  <constraint index="108" slack="0"/>
  <constraint index="109" slack="0"/>
  <constraint index="110" slack="0"/>
  <constraint index="111" slack="0"/>
  <constraint index="112" slack="0"/>
  <constraint index="113" slack="0"/>
  <constraint index="114" slack="0"/>
  <constraint index="115" slack="0"/>
  <constraint index="116" slack="0"/>
  <constraint index="117" slack="0"/>
  <constraint index="118" slack="0"/>
  <constraint index="119" slack="0"/>
  <constraint index="120" slack="0"/>
  <constraint index="121" slack="2.9999999999999964"/>
  <constraint index="122" slack="0"/>
  <constraint index="123" slack="0"/>
  <constraint index="124" slack="0"/>
  <constraint index="125" slack="0"/>
  <constraint index="126" slack="0"/>
  <constraint index="127" slack="0"/>
  <constraint index="128" slack="0"/>
  <constraint index="129" slack="0"/>
  <constraint index="130" slack="0"/>
  <constraint index="131" slack="0"/>
  <constraint index="132" slack="0"/>
  <constraint index="133" slack="0"/>
  <constraint index="134" slack="0"/>
  <constraint index="135" slack="0"/>
  <constraint index="136" slack="0"/>
  <constraint index="137" slack="0"/>
  <constraint index="138" slack="0"/>
  <constraint index="139" slack="0"/>
  <constraint index="140" slack="0"/>
  <constraint index="141" slack="0"/>
  <constraint index="142" slack="0"/>
  <constraint index="143" slack="0"/>
  <constraint index="144" slack="0"/>
  <constraint index="145" slack="0"/>
  <constraint index="146" slack="0"/>
  <constraint index="147" slack="0"/>
  <constraint index="148" slack="0"/>
  <constraint index="149" slack="0"/>
  <constraint index="150" slack="0"/>
  <constraint index="151" slack="0"/>
  <constraint index="152" slack="0"/>
  <constraint index="153" slack="0"/>
  <constraint index="154" slack="0"/>
  <constraint index="155" slack="0"/>
  <constraint index="156" slack="0"/>
  <constraint index="157" slack="0"/>
  <constraint index="158" slack="0"/>
  <constraint index="159" slack="0"/>
  <constraint index="160" slack="0"/>
  <constraint index="161" slack="0"/>
  <constraint index="162" slack="0"/>
  <constraint index="163" slack="0"/>
  <constraint index="164" slack="0"/>
  <constraint index="165" slack="0"/>
  <constraint index="166" slack="0"/>
  <constraint index="167" slack="1"/>
  <constraint index="168" slack="0"/>
  <constraint index="169" slack="0"/>
  <constraint index="170" slack="0"/>
  <constraint index="171" slack="0"/>
  <constraint index="172" slack="0"/>
  <constraint index="173" slack="0"/>
  <constraint index="174" slack="0"/>
  <constraint index="175" slack="0"/>
  <constraint index="176" slack="0"/>
  <constraint index="177" slack="0"/>
  <constraint index="178" slack="0"/>
  <constraint index="179" slack="1.9999999999999964"/>
  <constraint index="180" slack="0"/>
  <constraint index="181" slack="0"/>
  <constraint index="182" slack="0"/>
  <constraint index="183" slack="0"/>
  <constraint index="184" slack="0"/>
  <constraint index="185" slack="0"/>
  <constraint index="186" slack="0"/>
  <constraint index="187" slack="0"/>
  <constraint index="188" slack="0"/>
  <constraint index="189" slack="0"/>
  <constraint index="190" slack="0"/>
  <constraint index="191" slack="0"/>
  <constraint index="192" slack="0"/>
  <constraint index="193" slack="0"/>
  <constraint index="194" slack="0"/>
  <constraint index="195" slack="0"/>
  <constraint index="196" slack="0"/>
  <constraint index="197" slack="10"/>
  <constraint index="198" slack="0"/>
  <constraint index="199" slack="0"/>
  <constraint index="200" slack="0"/>
  <constraint index="201" slack="0"/>
  <constraint index="202" slack="0"/>
  <constraint index="203" slack="0"/>
  <constraint index="204" slack="0"/>
  <constraint index="205" slack="0"/>
  <constraint index="206" slack="0"/>
  <constraint index="207" slack="0"/>
  <constraint index="208" slack="0"/>
  <constraint index="209" slack="0"/>
  <constraint index="210" slack="0"/>
  <constraint index="211" slack="0"/>
  <constraint index="212" slack="11"/>
  <constraint index="213" slack="0"/>
  <constraint index="214" slack="0"/>
  <constraint index="215" slack="0"/>
  <constraint index="216" slack="0"/>
  <constraint index="217" slack="0"/>
  <constraint index="218" slack="0"/>
  <constraint index="219" slack="0"/>
  <constraint index="220" slack="0"/>
  <constraint index="221" slack="0"/>
  <constraint index="222" slack="0"/>
  <constraint index="223" slack="0"/>
  <constraint index="224" slack="0"/>
  <constraint index="225" slack="0"/>
  <constraint index="226" slack="0"/>
  <constraint index="227" slack="12"/>
  <constraint index="228" slack="0"/>
  <constraint index="229" slack="0"/>
  <constraint index="230" slack="0"/>
  <constraint index="231" slack="0"/>
  <constraint index="232" slack="0"/>
  <constraint index="233" slack="0"/>
  <constraint index="234" slack="0"/>
  <constraint index="235" slack="0"/>
  <constraint index="236" slack="0"/>
  <constraint index="237" slack="0"/>
  <constraint index="238" slack="0"/>
  <constraint index="239" slack="0"/>
  <constraint index="240" slack="0"/>
  <constraint index="241" slack="0"/>
  <constraint index="242" slack="0"/>
  <constraint index="243" slack="13"/>
  <constraint index="244" slack="0"/>
  <constraint index="245" slack="0"/>
  <constraint index="246" slack="0"/>
  <constraint index="247" slack="0"/>
  <constraint index="248" slack="0"/>
  <constraint index="249" slack="0"/>
  <constraint index="250" slack="0"/>
  <constraint index="251" slack="0"/>
  <constraint index="252" slack="0"/>
  <constraint index="253" slack="9"/>
  <constraint index="254" slack="0"/>
  <constraint index="255" slack="0"/>
  <constraint index="256" slack="0"/>
  <constraint index="257" slack="0"/>
  <constraint index="258" slack="0"/>
  <constraint index="259" slack="0"/>
  <constraint index="260" slack="0"/>
  <constraint index="261" slack="0"/>
  <constraint index="262" slack="0"/>
  <constraint index="263" slack="0"/>
  <constraint index="264" slack="14"/>
  <constraint index="265" slack="0"/>
  <constraint index="266" slack="0"/>
  <constraint index="267" slack="0"/>
  <constraint index="268" slack="0"/>
  <constraint index="269" slack="0"/>
  <constraint index="270" slack="0"/>
  <constraint index="271" slack="0"/>
 </linearConstraints>
 <variables>
  <variable name="x_0_1" index="0" value="0"/>
  <variable name="x_0_2" index="1" value="0"/>
  <variable name="x_0_3" index="2" value="0"/>
  <variable name="x_0_4" index="3" value="0"/>
  <variable name="x_0_5" index="4" value="0"/>
  <variable name="x_0_6" index="5" value="0"/>
  <variable name="x_0_8" index="6" value="0"/>
  <variable name="x_0_9" index="7" value="0"/>
  <variable name="x_0_10" index="8" value="0"/>
  <variable name="x_0_11" index="9" value="0"/>
  <variable name="x_0_12" index="10" value="0"/>
  <variable name="x_0_13" index="11" value="0"/>
  <variable name="x_0_14" index="12" value="7"/>
  <variable name="x_0_15" index="13" value="0"/>
  <variable name="x_1_0" index="14" value="8"/>
  <variable name="x_1_2" index="15" value="0"/>
  <variable name="x_1_3" index="16" value="0"/>
  <variable name="x_1_4" index="17" value="0"/>
  <variable name="x_1_5" index="18" value="0"/>
  <variable name="x_1_6" index="19" value="0"/>
  <variable name="x_1_8" index="20" value="0"/>
  <variable name="x_1_9" index="21" value="0"/>
  <variable name="x_1_10" index="22" value="0"/>
  <variable name="x_1_11" index="23" value="0"/>
  <variable name="x_1_12" index="24" value="0"/>
  <variable name="x_1_13" index="25" value="0"/>
  <variable name="x_1_14" index="26" value="0"/>
  <variable name="x_1_15" index="27" value="0"/>
  <variable name="x_2_0" index="28" value="0"/>
  <variable name="x_2_1" index="29" value="9.0000000000000036"/>
  <variable name="x_2_3" index="30" value="0"/>
  <variable name="x_2_4" index="31" value="0"/>
  <variable name="x_2_5" index="32" value="0"/>
  <variable name="x_2_6" index="33" value="0"/>
  <variable name="x_2_8" index="34" value="0"/>
  <variable name="x_2_9" index="35" value="0"/>
  <variable name="x_2_10" index="36" value="0"/>
  <variable name="x_2_11" index="37" value="0"/>
  <variable name="x_2_12" index="38" value="0"/>
  <variable name="x_2_13" index="39" value="0"/>
  <variable name="x_2_14" index="40" value="0"/>
  <variable name="x_2_15" index="41" value="0"/>
  <variable name="x_3_0" index="42" value="0"/>
  <variable name="x_3_1" index="43" value="0"/>
  <variable name="x_3_2" index="44" value="10.000000000000004"/>
  <variable name="x_3_4" index="45" value="0"/>
  <variable name="x_3_5" index="46" value="0"/>
  <variable name="x_3_6" index="47" value="0"/>
  <variable name="x_3_8" index="48" value="0"/>
  <variable name="x_3_9" index="49" value="0"/>
  <variable name="x_3_10" index="50" value="0"/>
  <variable name="x_3_11" index="51" value="0"/>
  <variable name="x_3_12" index="52" value="0"/>
  <variable name="x_3_13" index="53" value="0"/>
  <variable name="x_3_14" index="54" value="0"/>
  <variable name="x_3_15" index="55" value="0"/>
  <variable name="x_4_0" index="56" value="0"/>
  <variable name="x_4_1" index="57" value="0"/>
  <variable name="x_4_2" index="58" value="0"/>
  <variable name="x_4_3" index="59" value="11.000000000000004"/>
  <variable name="x_4_5" index="60" value="0"/>
  <variable name="x_4_6" index="61" value="0"/>
  <variable name="x_4_8" index="62" value="0"/>
  <variable name="x_4_9" index="63" value="0"/>
  <variable name="x_4_10" index="64" value="0"/>
  <variable name="x_4_11" index="65" value="0"/>
  <variable name="x_4_12" index="66" value="0"/>
  <variable name="x_4_13" index="67" value="0"/>
  <variable name="x_4_14" index="68" value="0"/>
  <variable name="x_4_15" index="69" value="0"/>
  <variable name="x_5_0" index="70" value="0"/>
  <variable name="x_5_1" index="71" value="0"/>
  <variable name="x_5_2" index="72" value="0"/>
  <variable name="x_5_3" index="73" value="0"/>
  <variable name="x_5_4" index="74" value="12.000000000000004"/>
  <variable name="x_5_6" index="75" value="0"/>
  <variable name="x_5_8" index="76" value="0"/>
  <variable name="x_5_9" index="77" value="0"/>
  <variable name="x_5_10" index="78" value="0"/>
  <variable name="x_5_11" index="79" value="0"/>
  <variable name="x_5_12" index="80" value="0"/>
  <variable name="x_5_13" index="81" value="0"/>
  <variable name="x_5_14" index="82" value="0"/>
  <variable name="x_5_15" index="83" value="0"/>
  <variable name="x_6_0" index="84" value="0"/>
  <variable name="x_6_1" index="85" value="0"/>
  <variable name="x_6_2" index="86" value="0"/>
  <variable name="x_6_3" index="87" value="0"/>
  <variable name="x_6_4" index="88" value="0"/>
  <variable name="x_6_5" index="89" value="0"/>
  <variable name="x_6_8" index="90" value="0"/>
  <variable name="x_6_9" index="91" value="0"/>
  <variable name="x_6_10" index="92" value="0"/>
  <variable name="x_6_11" index="93" value="0"/>
  <variable name="x_6_12" index="94" value="0"/>
  <variable name="x_6_13" index="95" value="0"/>
  <variable name="x_6_14" index="96" value="0"/>
  <variable name="x_6_15" index="97" value="0"/>
  <variable name="x_7_0" index="98" value="0"/>
  <variable name="x_7_1" index="99" value="0"/>
  <variable name="x_7_2" index="100" value="0"/>
  <variable name="x_7_3" index="101" value="0"/>
  <variable name="x_7_4" index="102" value="0"/>
  <variable name="x_7_5" index="103" value="0"/>
  <variable name="x_7_6" index="104" value="0"/>
  <variable name="x_7_8" index="105" value="15"/>
  <variable name="x_7_9" index="106" value="0"/>
  <variable name="x_7_10" index="107" value="0"/>
  <variable name="x_7_11" index="108" value="0"/>
  <variable name="x_7_12" index="109" value="0"/>
  <variable name="x_7_13" index="110" value="0"/>
  <variable name="x_7_14" index="111" value="0"/>
  <variable name="x_7_15" index="112" value="0"/>
  <variable name="x_8_0" index="113" value="0"/>
  <variable name="x_8_1" index="114" value="0"/>
  <variable name="x_8_2" index="115" value="0"/>
  <variable name="x_8_3" index="116" value="0"/>
  <variable name="x_8_4" index="117" value="0"/>
  <variable name="x_8_5" index="118" value="0"/>
  <variable name="x_8_6" index="119" value="0"/>
  <variable name="x_8_9" index="120" value="14"/>
  <variable name="x_8_10" index="121" value="0"/>
  <variable name="x_8_11" index="122" value="0"/>
  <variable name="x_8_12" index="123" value="0"/>
  <variable name="x_8_13" index="124" value="0"/>
  <variable name="x_8_14" index="125" value="0"/>
  <variable name="x_8_15" index="126" value="0"/>
  <variable name="x_9_0" index="127" value="0"/>
  <variable name="x_9_1" index="128" value="0"/>
  <variable name="x_9_2" index="129" value="0"/>
  <variable name="x_9_3" index="130" value="0"/>
  <variable name="x_9_4" index="131" value="0"/>
  <variable name="x_9_5" index="132" value="13.000000000000004"/>
  <variable name="x_9_6" index="133" value="0"/>
  <variable name="x_9_8" index="134" value="0"/>
  <variable name="x_9_10" index="135" value="0"/>
  <variable name="x_9_11" index="136" value="0"/>
  <variable name="x_9_12" index="137" value="0"/>
  <variable name="x_9_13" index="138" value="0"/>
  <variable name="x_9_14" index="139" value="0"/>
  <variable name="x_9_15" index="140" value="0"/>
  <variable name="x_10_0" index="141" value="0"/>
  <variable name="x_10_1" index="142" value="0"/>
  <variable name="x_10_2" index="143" value="0"/>
  <variable name="x_10_3" index="144" value="0"/>
  <variable name="x_10_4" index="145" value="0"/>
  <variable name="x_10_5" index="146" value="0"/>
  <variable name="x_10_6" index="147" value="0"/>
  <variable name="x_10_8" index="148" value="0"/>
  <variable name="x_10_9" index="149" value="0"/>
  <variable name="x_10_11" index="150" value="5"/>
  <variable name="x_10_12" index="151" value="0"/>
  <variable name="x_10_13" index="152" value="0"/>
  <variable name="x_10_14" index="153" value="0"/>
  <variable name="x_10_15" index="154" value="0"/>
  <variable name="x_11_0" index="155" value="0"/>
  <variable name="x_11_1" index="156" value="0"/>
  <variable name="x_11_2" index="157" value="0"/>
  <variable name="x_11_3" index="158" value="0"/>
  <variable name="x_11_4" index="159" value="0"/>
  <variable name="x_11_5" index="160" value="0"/>
  <variable name="x_11_6" index="161" value="0"/>
  <variable name="x_11_8" index="162" value="0"/>
  <variable name="x_11_9" index="163" value="0"/>
  <variable name="x_11_10" index="164" value="0"/>
  <variable name="x_11_12" index="165" value="4"/>
  <variable name="x_11_13" index="166" value="0"/>
  <variable name="x_11_14" index="167" value="0"/>
  <variable name="x_11_15" index="168" value="0"/>
  <variable name="x_12_0" index="169" value="0"/>
  <variable name="x_12_1" index="170" value="0"/>
  <variable name="x_12_2" index="171" value="0"/>
  <variable name="x_12_3" index="172" value="0"/>
  <variable name="x_12_4" index="173" value="0"/>
  <variable name="x_12_5" index="174" value="0"/>
  <variable name="x_12_6" index="175" value="0"/>
  <variable name="x_12_8" index="176" value="0"/>
  <variable name="x_12_9" index="177" value="0"/>
  <variable name="x_12_10" index="178" value="0"/>
  <variable name="x_12_11" index="179" value="0"/>
  <variable name="x_12_13" index="180" value="3"/>
  <variable name="x_12_14" index="181" value="0"/>
  <variable name="x_12_15" index="182" value="0"/>
  <variable name="x_13_0" index="183" value="0"/>
  <variable name="x_13_1" index="184" value="0"/>
  <variable name="x_13_2" index="185" value="0"/>
  <variable name="x_13_3" index="186" value="0"/>
  <variable name="x_13_4" index="187" value="0"/>
  <variable name="x_13_5" index="188" value="0"/>
  <variable name="x_13_6" index="189" value="0"/>
  <variable name="x_13_8" index="190" value="0"/>
  <variable name="x_13_9" index="191" value="0"/>
  <variable name="x_13_10" index="192" value="0"/>
  <variable name="x_13_11" index="193" value="0"/>
  <variable name="x_13_12" index="194" value="0"/>
  <variable name="x_13_14" index="195" value="0"/>
  <variable name="x_13_15" index="196" value="2"/>
  <variable name="x_14_0" index="197" value="0"/>
  <variable name="x_14_1" index="198" value="0"/>
  <variable name="x_14_2" index="199" value="0"/>
  <variable name="x_14_3" index="200" value="0"/>
  <variable name="x_14_4" index="201" value="0"/>
  <variable name="x_14_5" index="202" value="0"/>
  <variable name="x_14_6" index="203" value="0"/>
  <variable name="x_14_8" index="204" value="0"/>
  <variable name="x_14_9" index="205" value="0"/>
  <variable name="x_14_10" index="206" value="6"/>
  <variable name="x_14_11" index="207" value="0"/>
  <variable name="x_14_12" index="208" value="0"/>
  <variable name="x_14_13" index="209" value="0"/>
  <variable name="x_14_15" index="210" value="0"/>
  <variable name="x_15_0" index="211" value="0"/>
  <variable name="x_15_1" index="212" value="0"/>
  <variable name="x_15_2" index="213" value="0"/>
  <variable name="x_15_3" index="214" value="0"/>
  <variable name="x_15_4" index="215" value="0"/>
  <variable name="x_15_5" index="216" value="0"/>
  <variable name="x_15_6" index="217" value="1"/>
  <variable name="x_15_8" index="218" value="0"/>
  <variable name="x_15_9" index="219" value="0"/>
  <variable name="x_15_10" index="220" value="0"/>
  <variable name="x_15_11" index="221" value="0"/>
  <variable name="x_15_12" index="222" value="0"/>
  <variable name="x_15_13" index="223" value="0"/>
  <variable name="x_15_14" index="224" value="0"/>
  <variable name="y_0_1" index="225" value="0"/>
  <variable name="y_0_2" index="226" value="0"/>
  <variable name="y_0_3" index="227" value="0"/>
  <variable name="y_0_4" index="228" value="0"/>
  <variable name="y_0_5" index="229" value="0"/>
  <variable name="y_0_6" index="230" value="0"/>
  <variable name="y_0_7" index="231" value="0"/>
  <variable name="y_0_8" index="232" value="0"/>
  <variable name="y_0_9" index="233" value="0"/>
  <variable name="y_0_10" index="234" value="0"/>
  <variable name="y_0_11" index="235" value="0"/>
  <variable name="y_0_12" index="236" value="0"/>
  <variable name="y_0_13" index="237" value="0"/>
  <variable name="y_0_14" index="238" value="1"/>
  <variable name="y_0_15" index="239" value="0"/>
  <variable name="y_1_0" index="240" value="1"/>
  <variable name="y_1_2" index="241" value="0"/>
  <variable name="y_1_3" index="242" value="0"/>
  <variable name="y_1_4" index="243" value="0"/>
  <variable name="y_1_5" index="244" value="0"/>
  <variable name="y_1_6" index="245" value="0"/>
  <variable name="y_1_7" index="246" value="0"/>
  <variable name="y_1_8" index="247" value="0"/>
  <variable name="y_1_9" index="248" value="0"/>
  <variable name="y_1_10" index="249" value="0"/>
  <variable name="y_1_11" index="250" value="0"/>
  <variable name="y_1_12" index="251" value="0"/>
  <variable name="y_1_13" index="252" value="0"/>
  <variable name="y_1_14" index="253" value="0"/>
  <variable name="y_1_15" index="254" value="0"/>
  <variable name="y_2_0" index="255" value="0"/>
  <variable name="y_2_1" index="256" value="1"/>
  <variable name="y_2_3" index="257" value="0"/>
  <variable name="y_2_4" index="258" value="0"/>
  <variable name="y_2_5" index="259" value="0"/>
  <variable name="y_2_6" index="260" value="0"/>
  <variable name="y_2_7" index="261" value="0"/>
  <variable name="y_2_8" index="262" value="0"/>
  <variable name="y_2_9" index="263" value="0"/>
  <variable name="y_2_10" index="264" value="0"/>
  <variable name="y_2_11" index="265" value="0"/>
  <variable name="y_2_12" index="266" value="0"/>
  <variable name="y_2_13" index="267" value="0"/>
  <variable name="y_2_14" index="268" value="0"/>
  <variable name="y_2_15" index="269" value="0"/>
  <variable name="y_3_0" index="270" value="0"/>
  <variable name="y_3_1" index="271" value="0"/>
  <variable name="y_3_2" index="272" value="1"/>
  <variable name="y_3_4" index="273" value="0"/>
  <variable name="y_3_5" index="274" value="0"/>
  <variable name="y_3_6" index="275" value="0"/>
  <variable name="y_3_7" index="276" value="0"/>
  <variable name="y_3_8" index="277" value="0"/>
  <variable name="y_3_9" index="278" value="0"/>
  <variable name="y_3_10" index="279" value="0"/>
  <variable name="y_3_11" index="280" value="0"/>
  <variable name="y_3_12" index="281" value="0"/>
  <variable name="y_3_13" index="282" value="0"/>
  <variable name="y_3_14" index="283" value="0"/>
  <variable name="y_3_15" index="284" value="0"/>
  <variable name="y_4_0" index="285" value="0"/>
  <variable name="y_4_1" index="286" value="0"/>
  <variable name="y_4_2" index="287" value="0"/>
  <variable name="y_4_3" index="288" value="1"/>
  <variable name="y_4_5" index="289" value="0"/>
  <variable name="y_4_6" index="290" value="0"/>
  <variable name="y_4_7" index="291" value="0"/>
  <variable name="y_4_8" index="292" value="0"/>
  <variable name="y_4_9" index="293" value="0"/>
  <variable name="y_4_10" index="294" value="0"/>
  <variable name="y_4_11" index="295" value="0"/>
  <variable name="y_4_12" index="296" value="0"/>
  <variable name="y_4_13" index="297" value="0"/>
  <variable name="y_4_14" index="298" value="0"/>
  <variable name="y_4_15" index="299" value="0"/>
  <variable name="y_5_0" index="300" value="0"/>
  <variable name="y_5_1" index="301" value="0"/>
  <variable name="y_5_2" index="302" value="0"/>
  <variable name="y_5_3" index="303" value="0"/>
  <variable name="y_5_4" index="304" value="1"/>
  <variable name="y_5_6" index="305" value="0"/>
  <variable name="y_5_7" index="306" value="0"/>
  <variable name="y_5_8" index="307" value="0"/>
  <variable name="y_5_9" index="308" value="0"/>
  <variable name="y_5_10" index="309" value="0"/>
  <variable name="y_5_11" index="310" value="0"/>
  <variable name="y_5_12" index="311" value="0"/>
  <variable name="y_5_13" index="312" value="0"/>
  <variable name="y_5_14" index="313" value="0"/>
  <variable name="y_5_15" index="314" value="0"/>
  <variable name="y_6_0" index="315" value="0"/>
  <variable name="y_6_1" index="316" value="0"/>
  <variable name="y_6_2" index="317" value="0"/>
  <variable name="y_6_3" index="318" value="0"/>
  <variable name="y_6_4" index="319" value="0"/>
  <variable name="y_6_5" index="320" value="0"/>
  <variable name="y_6_7" index="321" value="1"/>
  <variable name="y_6_8" index="322" value="0"/>
  <variable name="y_6_9" index="323" value="0"/>
  <variable name="y_6_10" index="324" value="0"/>
  <variable name="y_6_11" index="325" value="0"/>
  <variable name="y_6_12" index="326" value="0"/>
  <variable name="y_6_13" index="327" value="0"/>
  <variable name="y_6_14" index="328" value="0"/>
  <variable name="y_6_15" index="329" value="0"/>
  <variable name="y_7_0" index="330" value="0"/>
  <variable name="y_7_1" index="331" value="0"/>
  <variable name="y_7_2" index="332" value="0"/>
  <variable name="y_7_3" index="333" value="0"/>
  <variable name="y_7_4" index="334" value="0"/>
  <variable name="y_7_5" index="335" value="0"/>
  <variable name="y_7_6" index="336" value="0"/>
  <variable name="y_7_8" index="337" value="1"/>
  <variable name="y_7_9" index="338" value="0"/>
  <variable name="y_7_10" index="339" value="0"/>
  <variable name="y_7_11" index="340" value="0"/>
  <variable name="y_7_12" index="341" value="0"/>
  <variable name="y_7_13" index="342" value="0"/>
  <variable name="y_7_14" index="343" value="0"/>
  <variable name="y_7_15" index="344" value="0"/>
  <variable name="y_8_0" index="345" value="0"/>
  <variable name="y_8_1" index="346" value="0"/>
  <variable name="y_8_2" index="347" value="0"/>
  <variable name="y_8_3" index="348" value="0"/>
  <variable name="y_8_4" index="349" value="0"/>
  <variable name="y_8_5" index="350" value="0"/>
  <variable name="y_8_6" index="351" value="0"/>
  <variable name="y_8_7" index="352" value="0"/>
  <variable name="y_8_9" index="353" value="1"/>
  <variable name="y_8_10" index="354" value="0"/>
  <variable name="y_8_11" index="355" value="0"/>
  <variable name="y_8_12" index="356" value="0"/>
  <variable name="y_8_13" index="357" value="0"/>
  <variable name="y_8_14" index="358" value="0"/>
  <variable name="y_8_15" index="359" value="0"/>
  <variable name="y_9_0" index="360" value="0"/>
  <variable name="y_9_1" index="361" value="0"/>
  <variable name="y_9_2" index="362" value="0"/>
  <variable name="y_9_3" index="363" value="0"/>
  <variable name="y_9_4" index="364" value="0"/>
  <variable name="y_9_5" index="365" value="1"/>
  <variable name="y_9_6" index="366" value="0"/>
  <variable name="y_9_7" index="367" value="0"/>
  <variable name="y_9_8" index="368" value="0"/>
  <variable name="y_9_10" index="369" value="0"/>
  <variable name="y_9_11" index="370" value="0"/>
  <variable name="y_9_12" index="371" value="0"/>
  <variable name="y_9_13" index="372" value="0"/>
  <variable name="y_9_14" index="373" value="0"/>
  <variable name="y_9_15" index="374" value="0"/>
  <variable name="y_10_0" index="375" value="0"/>
  <variable name="y_10_1" index="376" value="0"/>
  <variable name="y_10_2" index="377" value="0"/>
  <variable name="y_10_3" index="378" value="0"/>
  <variable name="y_10_4" index="379" value="0"/>
  <variable name="y_10_5" index="380" value="0"/>
  <variable name="y_10_6" index="381" value="0"/>
  <variable name="y_10_7" index="382" value="0"/>
  <variable name="y_10_8" index="383" value="0"/>
  <variable name="y_10_9" index="384" value="0"/>
  <variable name="y_10_11" index="385" value="1"/>
  <variable name="y_10_12" index="386" value="0"/>
  <variable name="y_10_13" index="387" value="0"/>
  <variable name="y_10_14" index="388" value="0"/>
  <variable name="y_10_15" index="389" value="0"/>
  <variable name="y_11_0" index="390" value="0"/>
  <variable name="y_11_1" index="391" value="0"/>
  <variable name="y_11_2" index="392" value="0"/>
  <variable name="y_11_3" index="393" value="0"/>
  <variable name="y_11_4" index="394" value="0"/>
  <variable name="y_11_5" index="395" value="0"/>
  <variable name="y_11_6" index="396" value="0"/>
  <variable name="y_11_7" index="397" value="0"/>
  <variable name="y_11_8" index="398" value="0"/>
  <variable name="y_11_9" index="399" value="0"/>
  <variable name="y_11_10" index="400" value="0"/>
  <variable name="y_11_12" index="401" value="1"/>
  <variable name="y_11_13" index="402" value="0"/>
  <variable name="y_11_14" index="403" value="0"/>
  <variable name="y_11_15" index="404" value="0"/>
  <variable name="y_12_0" index="405" value="0"/>
  <variable name="y_12_1" index="406" value="0"/>
  <variable name="y_12_2" index="407" value="0"/>
  <variable name="y_12_3" index="408" value="0"/>
  <variable name="y_12_4" index="409" value="0"/>
  <variable name="y_12_5" index="410" value="0"/>
  <variable name="y_12_6" index="411" value="0"/>
  <variable name="y_12_7" index="412" value="0"/>
  <variable name="y_12_8" index="413" value="0"/>
  <variable name="y_12_9" index="414" value="0"/>
  <variable name="y_12_10" index="415" value="0"/>
  <variable name="y_12_11" index="416" value="0"/>
  <variable name="y_12_13" index="417" value="1"/>
  <variable name="y_12_14" index="418" value="0"/>
  <variable name="y_12_15" index="419" value="0"/>
  <variable name="y_13_0" index="420" value="0"/>
  <variable name="y_13_1" index="421" value="0"/>
  <variable name="y_13_2" index="422" value="0"/>
  <variable name="y_13_3" index="423" value="0"/>
  <variable name="y_13_4" index="424" value="0"/>
  <variable name="y_13_5" index="425" value="0"/>
  <variable name="y_13_6" index="426" value="0"/>
  <variable name="y_13_7" index="427" value="0"/>
  <variable name="y_13_8" index="428" value="0"/>
  <variable name="y_13_9" index="429" value="0"/>
  <variable name="y_13_10" index="430" value="0"/>
  <variable name="y_13_11" index="431" value="0"/>
  <variable name="y_13_12" index="432" value="0"/>
  <variable name="y_13_14" index="433" value="0"/>
  <variable name="y_13_15" index="434" value="1"/>
  <variable name="y_14_0" index="435" value="0"/>
  <variable name="y_14_1" index="436" value="0"/>
  <variable name="y_14_2" index="437" value="0"/>
  <variable name="y_14_3" index="438" value="0"/>
  <variable name="y_14_4" index="439" value="0"/>
  <variable name="y_14_5" index="440" value="0"/>
  <variable name="y_14_6" index="441" value="0"/>
  <variable name="y_14_7" index="442" value="0"/>
  <variable name="y_14_8" index="443" value="0"/>
  <variable name="y_14_9" index="444" value="0"/>
  <variable name="y_14_10" index="445" value="1"/>
  <variable name="y_14_11" index="446" value="0"/>
  <variable name="y_14_12" index="447" value="0"/>
  <variable name="y_14_13" index="448" value="0"/>
  <variable name="y_14_15" index="449" value="0"/>
  <variable name="y_15_0" index="450" value="0"/>
  <variable name="y_15_1" index="451" value="0"/>
  <variable name="y_15_2" index="452" value="0"/>
  <variable name="y_15_3" index="453" value="0"/>
  <variable name="y_15_4" index="454" value="0"/>
  <variable name="y_15_5" index="455" value="0"/>
  <variable name="y_15_6" index="456" value="1"/>
  <variable name="y_15_7" index="457" value="0"/>
  <variable name="y_15_8" index="458" value="0"/>
  <variable name="y_15_9" index="459" value="0"/>
  <variable name="y_15_10" index="460" value="0"/>
  <variable name="y_15_11" index="461" value="0"/>
  <variable name="y_15_12" index="462" value="0"/>
  <variable name="y_15_13" index="463" value="0"/>
  <variable name="y_15_14" index="464" value="0"/>
 </variables>
 <objectiveValues>
  <objective index="0" name="" value="59.915957999999989"/>
 </objectiveValues>
</CPLEXSolution>
